c weights 0.5 0.5 0.5 0.5 1.0 0.0 0.3333333333333333 1 0.3333333333333333 1 0.3333333333333333 1 1 1 1 1 1 1 1 1
p cnf 10 28
c ASSIGNMENTS: DIMACS_INT WEIGHT_TRUE WEIGHT_FALSE NAME
c  1 0.50 0.50 p_open_door(2)_0
c  2 0.50 0.50 p_open_door(3)_0
c  3 1.00 0.00 select_door(1)
c  4 0.33 1.00 prize(1)
c  5 0.33 1.00 prize(2)
c  6 0.33 1.00 prize(3)
c  7 1.00 1.00 open_door(2)
c  8 1.00 1.00 open_door(3)
c  9 1.00 1.00 win_keep
c 10 1.00 1.00 win_switch
c QUERIES: 4, 5, 6, 3, 9, 10
7 5 6 -1 0
7 5 -6 0
-7 -5 -5 0
-7 -5 6 0
-7 -6 -5 0
-7 -6 6 0
-7 1 -5 0
-7 1 6 0
8 5 6 -2 0
8 6 -5 0
-8 -5 -6 0
-8 -5 5 0
-8 -6 -6 0
-8 -6 5 0
-8 2 -6 0
-8 2 5 0
9 -4 0
-9 4 0
10 -5 7 0
10 -6 8 0
-10 5 6 0
-10 5 -8 0
-10 -7 6 0
-10 -7 -8 0
-4 -5 0
-4 -6 0
-5 -6 0
4 5 6 0

